p cnf 11 34
-2 -3 0
-2 -4 0
-3 -4 0
-5 -6 0
-5 -7 0
-6 -7 0
-8 -9 0
-10 -11 0
-3 -2 0
-4 -2 0
-4 -3 0
-3 -5 0
-4 -5 0
-4 -6 0
-3 -8 0
-4 -8 0
-4 -9 0
-3 -10 0
-4 -10 0
-6 -5 0
-7 -5 0
-7 -6 0
-6 -8 0
-7 -8 0
-7 -9 0
-6 -10 0
-7 -10 0
-9 -8 0
-9 -10 0
-11 -10 0
-8 1 0
-10 1 0
-1 8 10 0
3 6 9 0
